NAME          
ROWS
 N  OBJ
 L  c1
 L  c2
 L  c3
 L  c4
 L  c5
COLUMNS
    MARKER    'MARKER'                 'INTORG'
    x[1]      c1        760
    x[1]      c2        263
    x[1]      c3        218
    x[1]      c4        301
    x[1]      c5        692
    x[1]      OBJ       -886
    x[2]      c1        890
    x[2]      c2        469
    x[2]      c3        510
    x[2]      c4        804
    x[2]      c5        868
    x[2]      OBJ       -374
    x[3]      c1        725
    x[3]      c2        373
    x[3]      c3        966
    x[3]      c4        389
    x[3]      c5        942
    x[3]      OBJ       -201
    x[4]      c1        656
    x[4]      c2        631
    x[4]      c3        527
    x[4]      c4        895
    x[4]      c5        374
    x[4]      OBJ       -372
    x[5]      c1        313
    x[5]      c2        871
    x[5]      c3        121
    x[5]      c4        616
    x[5]      c5        14
    x[5]      OBJ       -421
    x[6]      c1        679
    x[6]      c2        63
    x[6]      c3        492
    x[6]      c4        326
    x[6]      c5        315
    x[6]      OBJ       -202
    x[7]      c1        450
    x[7]      c2        763
    x[7]      c3        341
    x[7]      c4        60
    x[7]      c5        193
    x[7]      OBJ       -986
    x[8]      c1        979
    x[8]      c2        573
    x[8]      c3        315
    x[8]      c4        883
    x[8]      c5        433
    x[8]      OBJ       -859
    x[9]      c1        268
    x[9]      c2        141
    x[9]      c3        865
    x[9]      c4        503
    x[9]      c5        265
    x[9]      OBJ       -401
    x[10]     c1        642
    x[10]     c2        148
    x[10]     c3        942
    x[10]     c4        963
    x[10]     c5        329
    x[10]     OBJ       -193
    x[11]     c1        858
    x[11]     c2        127
    x[11]     c3        388
    x[11]     c4        401
    x[11]     c5        387
    x[11]     OBJ       -781
    x[12]     c1        221
    x[12]     c2        884
    x[12]     c3        660
    x[12]     c4        964
    x[12]     c5        522
    x[12]     OBJ       -552
    x[13]     c1        612
    x[13]     c2        94
    x[13]     c3        855
    x[13]     c4        563
    x[13]     c5        317
    x[13]     OBJ       -661
    x[14]     c1        857
    x[14]     c2        236
    x[14]     c3        270
    x[14]     c4        736
    x[14]     c5        803
    x[14]     OBJ       -674
    x[15]     c1        929
    x[15]     c2        121
    x[15]     c3        251
    x[15]     c4        273
    x[15]     c5        978
    x[15]     OBJ       -137
    x[16]     c1        418
    x[16]     c2        881
    x[16]     c3        933
    x[16]     c4        432
    x[16]     c5        120
    x[16]     OBJ       -107
    x[17]     c1        443
    x[17]     c2        457
    x[17]     c3        119
    x[17]     c4        586
    x[17]     c5        390
    x[17]     OBJ       -617
    x[18]     c1        354
    x[18]     c2        705
    x[18]     c3        109
    x[18]     c4        83
    x[18]     c5        425
    x[18]     OBJ       -512
    x[19]     c1        183
    x[19]     c2        289
    x[19]     c3        59
    x[19]     c4        677
    x[19]     c5        888
    x[19]     OBJ       -902
    x[20]     c1        48
    x[20]     c2        175
    x[20]     c3        45
    x[20]     c4        460
    x[20]     c5        52
    x[20]     OBJ       -357
RHS
    rhs       c1        5642
    rhs       c2        4132
    rhs       c3        4493
    rhs       c4        5458
    rhs       c5        4654
RANGES
BOUNDS
 BV bounds    x[1]
 BV bounds    x[2]
 BV bounds    x[3]
 BV bounds    x[4]
 BV bounds    x[5]
 BV bounds    x[6]
 BV bounds    x[7]
 BV bounds    x[8]
 BV bounds    x[9]
 BV bounds    x[10]
 BV bounds    x[11]
 BV bounds    x[12]
 BV bounds    x[13]
 BV bounds    x[14]
 BV bounds    x[15]
 BV bounds    x[16]
 BV bounds    x[17]
 BV bounds    x[18]
 BV bounds    x[19]
 BV bounds    x[20]
ENDATA
